data/solutions/recovery/degenerate/moderate/flexible/degenerate_moderate_instance6/46.sol
Elapsed time: 0.05
Upper bound: 10620884.0
Planning weighted value: 69743624.0
C[0]=10620884.0
C[1]=10567667.0
C[2]=10330304.0
y[0]=1
y[1]=1
y[2]=0
y[3]=2
y[4]=1
y[5]=0
y[6]=0
y[7]=1
y[8]=0
y[9]=2
y[10]=2
y[11]=2
y[12]=0
y[13]=1
y[14]=1
y[15]=0
y[16]=0
y[17]=1
y[18]=2
y[19]=2
y[20]=2
y[21]=2
y[22]=2
y[23]=0
y[24]=2
y[25]=2
