data/solutions/recovery/degenerate/moderate/flexible/degenerate_moderate_instance6/46.log

Log started (V12.6.3.0) Sat Apr 21 11:06:25 2018

New value for default parallel thread count: 1

Problem '/tmp/tmpurvYcO.pyomo.lp' read.
Read time = 0.00 sec. (0.02 ticks)

Problem name         : /tmp/tmpurvYcO.pyomo.lp
Objective sense      : Minimize
Variables            :      83  [Nneg: 1,  Binary: 78,  General Integer: 4]
Objective nonzeros   :       1
Linear constraints   :      59  [Less: 29,  Equal: 30]
  Nonzeros           :    1466
  RHS nonzeros       :      53

Variables            : Min LB: 0.000000         Max UB: 1.000000       
Objective nonzeros   : Min   : 1.000000         Max   : 1.000000       
Linear constraints   :
  Nonzeros           : Min   : 1.000000         Max   : 2096995.       
  RHS nonzeros       : Min   : 1.000000         Max   : 3.000000       
Tried aggregator 2 times.
MIP Presolve eliminated 26 rows and 1 columns.
Aggregator did 3 substitutions.
Reduced MIP has 30 rows, 79 columns, and 209 nonzeros.
Reduced MIP has 78 binaries, 1 generals, 0 SOSs, and 0 indicators.
Presolve time = 0.00 sec. (0.56 ticks)
Found incumbent of value 1.4775725e+07 after 0.00 sec. (0.70 ticks)
Probing time = 0.00 sec. (0.04 ticks)
Cover probing fixed 0 vars, tightened 4 bounds.
Tried aggregator 1 time.
Reduced MIP has 30 rows, 79 columns, and 209 nonzeros.
Reduced MIP has 78 binaries, 1 generals, 0 SOSs, and 0 indicators.
Presolve time = 0.00 sec. (0.13 ticks)
Probing time = 0.00 sec. (0.03 ticks)
Clique table members: 26.
MIP emphasis: balance optimality and feasibility.
MIP search method: dynamic search.
Parallel mode: none, using 1 thread.
Root relaxation solution time = 0.00 sec. (0.07 ticks)

        Nodes                                         Cuts/
   Node  Left     Objective  IInf  Best Integer    Best Bound    ItCnt     Gap

*     0+    0                       1.47757e+07  2096995.0000            85.81%
      0     0   1.05063e+07     4   1.47757e+07   1.05063e+07        5   28.89%
*     0+    0                       1.12411e+07   1.05063e+07             6.54%
      0     0   1.05063e+07     8   1.12411e+07      Fract: 2       10    6.54%
*     0+    0                       1.06775e+07   1.05063e+07             1.60%
      0     0   1.05063e+07    12   1.06775e+07     Covers: 3       14    1.60%
*     0+    0                       1.06276e+07   1.05063e+07             1.14%
      0     2   1.05063e+07     7   1.06276e+07   1.05063e+07       14    1.14%
Elapsed time = 0.01 sec. (3.34 ticks, tree = 0.01 MB, solutions = 3)
*   110    44      integral     0   1.06209e+07   1.05063e+07      487    1.08%

Cover cuts applied:  19
Gomory fractional cuts applied:  2

Root node processing (before b&c):
  Real time             =    0.01 sec. (3.34 ticks)
Sequential b&c:
  Real time             =    0.01 sec. (9.30 ticks)
                          ------------
Total (root+branch&cut) =    0.02 sec. (12.64 ticks)

Solution pool: 4 solutions saved.

MIP - Integer optimal, tolerance (0.0001/1e-06):  Objective =  1.0620884000e+07
Current MIP best bound =  1.0619928491e+07 (gap = 955.509, 0.01%)
Solution time =    0.02 sec.  Iterations = 707  Nodes = 186 (1)
Deterministic time = 12.64 ticks  (704.33 ticks/sec)


Incumbent solution written to file '/tmp/tmp3NHvmx.cplex.sol'.
